
******************************************************************************
This program contains Ipopt, a library for large-scale nonlinear optimization.
 Ipopt is released as open source code under the Eclipse Public License (EPL).
         For more information visit http://projects.coin-or.org/Ipopt

This version of Ipopt was compiled from source code available at
    https://github.com/IDAES/Ipopt as part of the Institute for the Design of
    Advanced Energy Systems Process Systems Engineering Framework (IDAES PSE
    Framework) Copyright (c) 2018-2019. See https://github.com/IDAES/idaes-pse.

This version of Ipopt was compiled using HSL, a collection of Fortran codes
    for large-scale scientific computation.  All technical papers, sales and
    publicity material resulting from use of the HSL codes within IPOPT must
    contain the following acknowledgement:
        HSL, a collection of Fortran codes for large-scale scientific
        computation. See http://www.hsl.rl.ac.uk.
******************************************************************************

This is Ipopt version 3.13.2, running with linear solver ma27.

Number of nonzeros in equality constraint Jacobian...:      928
Number of nonzeros in inequality constraint Jacobian.:        0
Number of nonzeros in Lagrangian Hessian.............:      806

Total number of variables............................:      403
                     variables with only lower bounds:      124
                variables with lower and upper bounds:      217
                     variables with only upper bounds:        0
Total number of equality constraints.................:      402
Total number of inequality constraints...............:        0
        inequality constraints with only lower bounds:        0
   inequality constraints with lower and upper bounds:        0
        inequality constraints with only upper bounds:        0

iter    objective    inf_pr   inf_du lg(mu)  ||d||  lg(rg) alpha_du alpha_pr  ls
   0  0.0000000e+00 1.17e+00 4.44e-16  -1.0 0.00e+00    -  0.00e+00 0.00e+00   0
   1  4.8963021e-02 1.09e+00 3.71e+04  -1.0 2.00e+05    -  3.14e-01 7.02e-02h  1
   2  8.8087885e-02 1.07e+00 3.78e+04  -1.0 2.40e+05    -  4.74e-01 2.33e-02h  1
   3  1.7701117e+01 3.43e-01 8.92e+04  -1.0 2.38e+05    -  4.81e-01 9.90e-01h  1
   4  2.3002806e+01 5.10e-02 1.98e+03  -1.0 3.57e+04    -  7.57e-01 9.90e-01h  1
   5  2.3156457e+01 1.75e-03 6.70e+02  -1.0 1.51e+03    -  9.84e-01 9.90e-01h  1
   6  2.3163499e+01 1.90e-05 1.29e+01  -1.0 8.16e+01    -  9.90e-01 9.90e-01h  1
   7  2.3305932e+01 7.27e-05 1.03e+04  -1.0 2.17e+03    -  9.90e-01 9.90e-01H  1
   8  2.3160732e+01 2.20e-03 7.64e+07  -3.8 4.16e+03    -  9.76e-01 5.15e-01f  1
   9  2.3158188e+01 1.76e-06 3.15e+04  -3.8 3.60e+01    -  1.00e+00 1.00e+00h  1
In iteration 9, 31 Slacks too small, adjusting variable bounds
iter    objective    inf_pr   inf_du lg(mu)  ||d||  lg(rg) alpha_du alpha_pr  ls
  10  2.3158174e+01 1.97e-10 3.41e+08  -3.8 2.10e-01    -  1.00e+00 1.00e+00h  1
  11  2.3158174e+01 3.42e-12 2.37e-04  -3.8 2.76e-04    -  1.00e+00 1.00e+00h  1
  12  2.3158023e+01 2.72e-12 1.31e+06  -9.0 2.23e+00    -  1.00e+00 9.99e-01F  1
  13  2.3158023e+01 3.99e-12 3.02e-10  -9.0 1.34e-05    -  1.00e+00 1.00e+00h  1

Number of Iterations....: 13

                                   (scaled)                 (unscaled)
Objective...............:   2.3158023089128310e+01    2.3158023089128310e+01
Dual infeasibility......:   3.0195224098861217e-10    3.0195224098861217e-10
Constraint violation....:   3.9923619965520629e-12    3.9923619965520629e-12
Complementarity.........:   9.0909102504413559e-10    9.0909102504413559e-10
Overall NLP error.......:   1.6880449234805776e-10    9.0909102504413559e-10


Number of objective function evaluations             = 19
Number of objective gradient evaluations             = 14
Number of equality constraint evaluations            = 19
Number of inequality constraint evaluations          = 0
Number of equality constraint Jacobian evaluations   = 14
Number of inequality constraint Jacobian evaluations = 0
Number of Lagrangian Hessian evaluations             = 13
Total CPU secs in IPOPT (w/o function evaluations)   =      0.022
Total CPU secs in NLP function evaluations           =      0.219

EXIT: Optimal Solution Found.
